Minimize
x_0 + x_1 + x_2 + x_3 + x_4 + x_5 + x_6 + x_7 + x_8 + x_9 + x_10 + x_11 + x_12 + x_13 + x_14 + x_15 + x_16 + x_17 + x_18 + x_19 + x_20 + x_21 + x_22 + x_23 + x_24 + x_25 + x_26 + x_27 + x_28 + x_29 + x_30 + x_31 + x_32 + x_33 + x_34 + x_35 + x_36 + x_37 + x_38 + x_39 + x_40 + x_41 + x_42 + x_43 + x_44 + x_45 + x_46 + x_47 + x_48 + x_49 + x_50 + x_51 + x_52 + x_53 + x_54 + x_55 + x_56 + x_57 + x_58 + x_59 + x_60 + x_61 + x_62 + x_63 

Subject To
x_0   +  x_64   +  x_1   +  x_65   +  x_2   +  x_66   +  x_3   +  x_67  - 5 d0 >= 0
 d0  - x_0 >= 0
 d0  - x_64 >= 0
 d0  - x_1 >= 0
 d0  - x_65 >= 0
 d0  - x_2 >= 0
 d0  - x_66 >= 0
 d0  - x_3 >= 0
 d0  - x_67 >= 0
x_4   +  x_68   +  x_5   +  x_69   +  x_6   +  x_70   +  x_7   +  x_71  - 5 d1 >= 0
 d1  - x_4 >= 0
 d1  - x_68 >= 0
 d1  - x_5 >= 0
 d1  - x_69 >= 0
 d1  - x_6 >= 0
 d1  - x_70 >= 0
 d1  - x_7 >= 0
 d1  - x_71 >= 0
x_8   +  x_72   +  x_9   +  x_73   +  x_10   +  x_74   +  x_11   +  x_75  - 5 d2 >= 0
 d2  - x_8 >= 0
 d2  - x_72 >= 0
 d2  - x_9 >= 0
 d2  - x_73 >= 0
 d2  - x_10 >= 0
 d2  - x_74 >= 0
 d2  - x_11 >= 0
 d2  - x_75 >= 0
x_12   +  x_76   +  x_13   +  x_77   +  x_14   +  x_78   +  x_15   +  x_79  - 5 d3 >= 0
 d3  - x_12 >= 0
 d3  - x_76 >= 0
 d3  - x_13 >= 0
 d3  - x_77 >= 0
 d3  - x_14 >= 0
 d3  - x_78 >= 0
 d3  - x_15 >= 0
 d3  - x_79 >= 0
x_16   +  x_80   +  x_17   +  x_81   +  x_18   +  x_82   +  x_19   +  x_83  - 5 d4 >= 0
 d4  - x_16 >= 0
 d4  - x_80 >= 0
 d4  - x_17 >= 0
 d4  - x_81 >= 0
 d4  - x_18 >= 0
 d4  - x_82 >= 0
 d4  - x_19 >= 0
 d4  - x_83 >= 0
x_20   +  x_84   +  x_21   +  x_85   +  x_22   +  x_86   +  x_23   +  x_87  - 5 d5 >= 0
 d5  - x_20 >= 0
 d5  - x_84 >= 0
 d5  - x_21 >= 0
 d5  - x_85 >= 0
 d5  - x_22 >= 0
 d5  - x_86 >= 0
 d5  - x_23 >= 0
 d5  - x_87 >= 0
x_24   +  x_88   +  x_25   +  x_89   +  x_26   +  x_90   +  x_27   +  x_91  - 5 d6 >= 0
 d6  - x_24 >= 0
 d6  - x_88 >= 0
 d6  - x_25 >= 0
 d6  - x_89 >= 0
 d6  - x_26 >= 0
 d6  - x_90 >= 0
 d6  - x_27 >= 0
 d6  - x_91 >= 0
x_28   +  x_92   +  x_29   +  x_93   +  x_30   +  x_94   +  x_31   +  x_95  - 5 d7 >= 0
 d7  - x_28 >= 0
 d7  - x_92 >= 0
 d7  - x_29 >= 0
 d7  - x_93 >= 0
 d7  - x_30 >= 0
 d7  - x_94 >= 0
 d7  - x_31 >= 0
 d7  - x_95 >= 0
x_32   +  x_96   +  x_33   +  x_97   +  x_34   +  x_98   +  x_35   +  x_99  - 5 d8 >= 0
 d8  - x_32 >= 0
 d8  - x_96 >= 0
 d8  - x_33 >= 0
 d8  - x_97 >= 0
 d8  - x_34 >= 0
 d8  - x_98 >= 0
 d8  - x_35 >= 0
 d8  - x_99 >= 0
x_36   +  x_100   +  x_37   +  x_101   +  x_38   +  x_102   +  x_39   +  x_103  - 5 d9 >= 0
 d9  - x_36 >= 0
 d9  - x_100 >= 0
 d9  - x_37 >= 0
 d9  - x_101 >= 0
 d9  - x_38 >= 0
 d9  - x_102 >= 0
 d9  - x_39 >= 0
 d9  - x_103 >= 0
x_40   +  x_104   +  x_41   +  x_105   +  x_42   +  x_106   +  x_43   +  x_107  - 5 d10 >= 0
 d10  - x_40 >= 0
 d10  - x_104 >= 0
 d10  - x_41 >= 0
 d10  - x_105 >= 0
 d10  - x_42 >= 0
 d10  - x_106 >= 0
 d10  - x_43 >= 0
 d10  - x_107 >= 0
x_44   +  x_108   +  x_45   +  x_109   +  x_46   +  x_110   +  x_47   +  x_111  - 5 d11 >= 0
 d11  - x_44 >= 0
 d11  - x_108 >= 0
 d11  - x_45 >= 0
 d11  - x_109 >= 0
 d11  - x_46 >= 0
 d11  - x_110 >= 0
 d11  - x_47 >= 0
 d11  - x_111 >= 0
x_48   +  x_112   +  x_49   +  x_113   +  x_50   +  x_114   +  x_51   +  x_115  - 5 d12 >= 0
 d12  - x_48 >= 0
 d12  - x_112 >= 0
 d12  - x_49 >= 0
 d12  - x_113 >= 0
 d12  - x_50 >= 0
 d12  - x_114 >= 0
 d12  - x_51 >= 0
 d12  - x_115 >= 0
x_52   +  x_116   +  x_53   +  x_117   +  x_54   +  x_118   +  x_55   +  x_119  - 5 d13 >= 0
 d13  - x_52 >= 0
 d13  - x_116 >= 0
 d13  - x_53 >= 0
 d13  - x_117 >= 0
 d13  - x_54 >= 0
 d13  - x_118 >= 0
 d13  - x_55 >= 0
 d13  - x_119 >= 0
x_56   +  x_120   +  x_57   +  x_121   +  x_58   +  x_122   +  x_59   +  x_123  - 5 d14 >= 0
 d14  - x_56 >= 0
 d14  - x_120 >= 0
 d14  - x_57 >= 0
 d14  - x_121 >= 0
 d14  - x_58 >= 0
 d14  - x_122 >= 0
 d14  - x_59 >= 0
 d14  - x_123 >= 0
x_60   +  x_124   +  x_61   +  x_125   +  x_62   +  x_126   +  x_63   +  x_127  - 5 d15 >= 0
 d15  - x_60 >= 0
 d15  - x_124 >= 0
 d15  - x_61 >= 0
 d15  - x_125 >= 0
 d15  - x_62 >= 0
 d15  - x_126 >= 0
 d15  - x_63 >= 0
 d15  - x_127 >= 0



x_0 + x_1 + x_2 + x_3 + x_4 + x_5 + x_6 + x_7 + x_8 + x_9 + x_10 + x_11 + x_12 + x_13 + x_14 + x_15 + x_16 + x_17 + x_18 + x_19 + x_20 + x_21 + x_22 + x_23 + x_24 + x_25 + x_26 + x_27 + x_28 + x_29 + x_30 + x_31 + x_32 + x_33 + x_34 + x_35 + x_36 + x_37 + x_38 + x_39 + x_40 + x_41 + x_42 + x_43 + x_44 + x_45 + x_46 + x_47 + x_48 + x_49 + x_50 + x_51 + x_52 + x_53 + x_54 + x_55 + x_56 + x_57 + x_58 + x_59 + x_60 + x_61 + x_62 + x_63  >= 1 



Binary
x_0
x_1
x_2
x_3
x_4
x_5
x_6
x_7
x_8
x_9
x_10
x_11
x_12
x_13
x_14
x_15
x_16
x_17
x_18
x_19
x_20
x_21
x_22
x_23
x_24
x_25
x_26
x_27
x_28
x_29
x_30
x_31
x_32
x_33
x_34
x_35
x_36
x_37
x_38
x_39
x_40
x_41
x_42
x_43
x_44
x_45
x_46
x_47
x_48
x_49
x_50
x_51
x_52
x_53
x_54
x_55
x_56
x_57
x_58
x_59
x_60
x_61
x_62
x_63
x_64
x_65
x_66
x_67
x_68
x_69
x_70
x_71
x_72
x_73
x_74
x_75
x_76
x_77
x_78
x_79
x_80
x_81
x_82
x_83
x_84
x_85
x_86
x_87
x_88
x_89
x_90
x_91
x_92
x_93
x_94
x_95
x_96
x_97
x_98
x_99
x_100
x_101
x_102
x_103
x_104
x_105
x_106
x_107
x_108
x_109
x_110
x_111
x_112
x_113
x_114
x_115
x_116
x_117
x_118
x_119
x_120
x_121
x_122
x_123
x_124
x_125
x_126
x_127
d0
d1
d2
d3
d4
d5
d6
d7
d8
d9
d10
d11
d12
d13
d14
d15
End
